
Gurobi 9.1.1 (win64) logging started Mon Apr 18 01:34:24 2022

Changed value of parameter LogFile to ./Log/Pattern_Appro_solver_300_order_15_batch.log
   Prev:   Default: 
Gurobi Optimizer version 9.1.1 build v9.1.1rc0 (win64)
Thread count: 6 physical cores, 12 logical processors, using up to 12 threads
Optimize a model with 946 rows, 3885 columns and 16845 nonzeros
Model fingerprint: 0x747bf6ee
Variable types: 0 continuous, 3885 integer (3405 binary)
Coefficient statistics:
  Matrix range     [1e+00, 2e+01]
  Objective range  [1e+00, 4e+01]
  Bounds range     [1e+00, 9e+00]
  RHS range        [1e+00, 2e+01]
Found heuristic solution: objective 4943.0000000
Presolve removed 101 rows and 233 columns
Presolve time: 0.02s
Presolved: 845 rows, 3652 columns, 15528 nonzeros
Variable types: 0 continuous, 3652 integer (3178 binary)

Root relaxation: objective 8.209971e+02, 5036 iterations, 0.14 seconds

    Nodes    |    Current Node    |     Objective Bounds      |     Work
 Expl Unexpl |  Obj  Depth IntInf | Incumbent    BestBd   Gap | It/Node Time

     0     0  820.99707    0  280 4943.00000  820.99707  83.4%     -    0s
H    0     0                    3942.0000000  820.99707  79.2%     -    0s
H    0     0                    3695.0000000  820.99707  77.8%     -    0s
H    0     0                    3652.0000000  820.99707  77.5%     -    0s
H    0     0                    3306.0000000  820.99707  75.2%     -    0s
H    0     0                    3113.0000000  820.99707  73.6%     -    0s
H    0     0                    3009.0000000  822.74403  72.7%     -    0s
H    0     0                    2993.0000000  822.74403  72.5%     -    0s
     0     0  877.08225    0  557 2993.00000  877.08225  70.7%     -    0s
H    0     0                    2897.0000000  877.08225  69.7%     -    0s
     0     0  877.70655    0  573 2897.00000  877.70655  69.7%     -    0s
     0     0  877.78071    0  594 2897.00000  877.78071  69.7%     -    0s
     0     0  877.78855    0  591 2897.00000  877.78855  69.7%     -    0s
H    0     0                    2894.0000000  877.78855  69.7%     -    0s
H    0     0                    2878.0000000  877.78855  69.5%     -    0s
H    0     0                    2855.0000000  877.78855  69.3%     -    0s
H    0     0                    2811.0000000  877.78855  68.8%     -    0s
H    0     0                    2809.0000000  877.78855  68.8%     -    0s
H    0     0                    2789.0000000  877.78855  68.5%     -    0s
H    0     0                    2772.0000000  877.78855  68.3%     -    0s
H    0     0                    2745.0000000  877.78855  68.0%     -    0s
H    0     0                    2722.0000000  877.78855  67.8%     -    0s
H    0     0                    2705.0000000  877.78855  67.5%     -    0s
     0     0  907.60658    0  824 2705.00000  907.60658  66.4%     -    0s
     0     0  911.59161    0  895 2705.00000  911.59161  66.3%     -    1s
     0     0  912.50508    0  937 2705.00000  912.50508  66.3%     -    1s
     0     0  912.68756    0  912 2705.00000  912.68756  66.3%     -    1s
     0     0  912.71144    0  893 2705.00000  912.71144  66.3%     -    1s
     0     0  926.83911    0 1220 2705.00000  926.83911  65.7%     -    2s
H    0     0                    2681.0000000  926.83911  65.4%     -    2s
     0     0  930.56710    0 1238 2681.00000  930.56710  65.3%     -    3s
H    0     0                    2670.0000000  930.56710  65.1%     -    3s
H    0     0                    2652.0000000  930.56710  64.9%     -    3s
     0     0  931.72360    0 1239 2652.00000  931.72360  64.9%     -    3s
     0     0  932.32934    0 1296 2652.00000  932.32934  64.8%     -    4s
H    0     0                    2651.0000000  932.32934  64.8%     -    4s
H    0     0                    2644.0000000  932.32934  64.7%     -    4s
     0     0  932.47753    0 1333 2644.00000  932.47753  64.7%     -    4s
     0     0  932.54559    0 1332 2644.00000  932.54559  64.7%     -    4s
H    0     0                    2643.0000000  932.54559  64.7%     -    6s
H    0     0                    2635.0000000  932.54559  64.6%     -    6s
     0     0  942.95969    0 1527 2635.00000  942.95969  64.2%     -    6s
H    0     0                    2611.0000000  942.95969  63.9%     -    6s
H    0     0                    2608.0000000  942.95969  63.8%     -    8s
     0     0  946.37468    0 1690 2608.00000  946.37468  63.7%     -    8s
H    0     0                    2600.0000000  946.37468  63.6%     -   10s
H    0     0                    2598.0000000  946.37468  63.6%     -   10s
     0     0  947.58934    0 1777 2598.00000  947.58934  63.5%     -   10s
     0     0  948.26103    0 1814 2598.00000  948.26103  63.5%     -   11s
H    0     0                    2589.0000000  948.26103  63.4%     -   12s
     0     0  948.43756    0 1837 2589.00000  948.43756  63.4%     -   12s
H    0     0                    2581.0000000  948.43756  63.3%     -   15s
H    0     0                    2566.0000000  948.43756  63.0%     -   15s
     0     0  952.66408    0 2015 2566.00000  952.66408  62.9%     -   15s
H    0     0                    2565.0000000  952.66408  62.9%     -   15s
H    0     0                    2563.0000000  952.66408  62.8%     -   17s
     0     0  954.25262    0 2100 2563.00000  954.25262  62.8%     -   17s
H    0     0                    2562.0000000  954.25262  62.8%     -   20s
H    0     0                    2558.0000000  954.25262  62.7%     -   20s
     0     0  955.10306    0 2165 2558.00000  955.10306  62.7%     -   20s
     0     0  955.72053    0 2188 2558.00000  955.72053  62.6%     -   22s
     0     0  955.95434    0 2211 2558.00000  955.95434  62.6%     -   23s
H    0     0                    2554.0000000  955.95434  62.6%     -   27s
     0     0  958.10107    0 2375 2554.00000  958.10107  62.5%     -   27s
H    0     0                    2553.0000000  958.10107  62.5%     -   29s
     0     0  958.48876    0 2396 2553.00000  958.48876  62.5%     -   29s
H    0     0                    2546.0000000  958.48876  62.4%     -   31s
     0     0  958.66672    0 2432 2546.00000  958.66672  62.3%     -   31s
H    0     0                    2542.0000000  958.66672  62.3%     -   35s
H    0     0                    2538.0000000  958.66672  62.2%     -   35s
     0     0  959.84736    0 2629 2538.00000  959.84736  62.2%     -   35s
     0     0  959.84736    0 2629 2538.00000  959.84736  62.2%     -   36s
H    0     0                    2531.0000000  959.84813  62.1%     -   37s
     0     2  959.84813    0 2627 2531.00000  959.84813  62.1%     -   37s
     1     4  960.07662    1 2504 2531.00000  959.84915  62.1%  1353   40s
     3     8  960.83487    2 2601 2531.00000  960.07813  62.1%  4030   50s
     7    10  963.34174    3 2786 2531.00000  960.83653  62.0%  8962   60s

Cutting planes:
  Gomory: 78
  Cover: 1907
  Implied bound: 210
  Clique: 1361
  MIR: 92
  StrongCG: 27
  Flow cover: 136
  GUB cover: 3
  Zero half: 39
  Relax-and-lift: 28

Explored 9 nodes (142122 simplex iterations) in 60.01 seconds
Thread count was 12 (of 12 available processors)

Solution count 10: 2531 2538 2542 ... 2565

Time limit reached
Best objective 2.531000000000e+03, best bound 9.610000000000e+02, gap 62.0308%
